Instance0
Objective;Best_Integer;Best_Bound
CPXPARAM_MIP_Cuts_Cliques 0
Instance1
Objective;Best_Integer;Best_Bound
CPXPARAM_MIP_Cuts_Cliques 0
Instance2
Objective;Best_Integer;Best_Bound
CPXPARAM_MIP_Cuts_Cliques 0
Instance3
Objective;Best_Integer;Best_Bound
CPXPARAM_MIP_Cuts_Cliques 0
Instance4
Objective;Best_Integer;Best_Bound
CPXPARAM_MIP_Cuts_Cliques 0
Instance5
Objective;Best_Integer;Best_Bound
CPXPARAM_MIP_Cuts_Cliques 0
Instance6
Objective;Best_Integer;Best_Bound
CPXPARAM_MIP_Cuts_Cliques 0
Instance7
Objective;Best_Integer;Best_Bound
CPXPARAM_MIP_Cuts_Cliques 0
Instance8
Objective;Best_Integer;Best_Bound
CPXPARAM_MIP_Cuts_Cliques 0
Instance9
Objective;Best_Integer;Best_Bound
CPXPARAM_MIP_Cuts_Cliques 0
Instance10
Objective;Best_Integer;Best_Bound
CPXPARAM_MIP_Cuts_Cliques 0
Instance11
Objective;Best_Integer;Best_Bound
CPXPARAM_MIP_Cuts_Cliques 0
Instance12
Objective;Best_Integer;Best_Bound
CPXPARAM_MIP_Cuts_Cliques 0
Instance13
Objective;Best_Integer;Best_Bound
CPXPARAM_MIP_Cuts_Cliques 0
Instance14
Objective;Best_Integer;Best_Bound
CPXPARAM_MIP_Cuts_Cliques 0
Instance15
Objective;Best_Integer;Best_Bound
CPXPARAM_MIP_Cuts_Cliques 0
Instance16
Objective;Best_Integer;Best_Bound
CPXPARAM_MIP_Cuts_Cliques 0
Instance17
Objective;Best_Integer;Best_Bound
CPXPARAM_MIP_Cuts_Cliques 0
Instance18
Objective;Best_Integer;Best_Bound
CPXPARAM_MIP_Cuts_Cliques 0
Instance19
Objective;Best_Integer;Best_Bound
CPXPARAM_MIP_Cuts_Cliques 0
Instance20
Objective;Best_Integer;Best_Bound
CPXPARAM_MIP_Cuts_Cliques 0
Instance21
Objective;Best_Integer;Best_Bound
CPXPARAM_MIP_Cuts_Cliques 0
Instance22
Objective;Best_Integer;Best_Bound
CPXPARAM_MIP_Cuts_Cliques 0
Instance23
Objective;Best_Integer;Best_Bound
CPXPARAM_MIP_Cuts_Cliques 0
Instance24
Objective;Best_Integer;Best_Bound
CPXPARAM_MIP_Cuts_Cliques 0
Instance25
Objective;Best_Integer;Best_Bound
CPXPARAM_MIP_Cuts_Cliques 0
Instance26
Objective;Best_Integer;Best_Bound
CPXPARAM_MIP_Cuts_Cliques 0
Instance27
Objective;Best_Integer;Best_Bound
CPXPARAM_MIP_Cuts_Cliques 0
Instance28
Objective;Best_Integer;Best_Bound
CPXPARAM_MIP_Cuts_Cliques 0
Instance29
Objective;Best_Integer;Best_Bound
CPXPARAM_MIP_Cuts_Cliques 0
Instance30
CPXPARAM_MIP_Cuts_Cliques 0
Instance31
CPXPARAM_MIP_Cuts_Cliques 0
Instance32
Objective;Best_Integer;Best_Bound
CPXPARAM_MIP_Cuts_Cliques 0
Instance33
Objective;Best_Integer;Best_Bound
CPXPARAM_MIP_Cuts_Cliques 0
Instance34
Objective;Best_Integer;Best_Bound
CPXPARAM_MIP_Cuts_Cliques 0
Instance35
CPXPARAM_MIP_Cuts_Cliques 0
Instance36
Objective;Best_Integer;Best_Bound
CPXPARAM_MIP_Cuts_Cliques 0
Instance37
Objective;Best_Integer;Best_Bound
CPXPARAM_MIP_Cuts_Cliques 0
Instance38
Objective;Best_Integer;Best_Bound
CPXPARAM_MIP_Cuts_Cliques 0
Instance39
Objective;Best_Integer;Best_Bound
CPXPARAM_MIP_Cuts_Cliques 0
